Route #1: 28 23 57 48 54 63 11 7
Route #2: 17 51 39 62 29 55
Route #3: 33 1 12 13 24 52 25 21
Route #4: 18 19 8 10 56 53 5
Route #5: 32 20 58 40 59 44
Route #6: 45 61 42 38 2 41 16 50 60
Route #7: 49 4 3 36 35 37 30
Route #8: 15 22 9 14 27 43
Route #9: 46 64 6 26 31 34 47
Cost 1174
Time 0.145023
